c "321879.clq"
p edge 120 464
e 1 5
e 1 6
e 1 7
e 1 8
e 1 15
e 1 16
e 1 26
e 1 49
e 1 51
e 1 61
e 1 92
e 1 108
e 1 110
e 1 117
e 2 5
e 2 6
e 2 7
e 2 8
e 2 10
e 2 17
e 2 19
e 2 21
e 2 28
e 2 30
e 2 45
e 2 46
e 2 48
e 2 52
e 2 57
e 2 60
e 2 65
e 2 95
e 2 96
e 2 115
e 2 117
e 3 5
e 3 31
e 4 5
e 4 6
e 4 7
e 4 12
e 4 13
e 4 14
e 4 34
e 4 42
e 4 51
e 4 55
e 4 57
e 4 59
e 4 67
e 4 70
e 4 79
e 4 88
e 4 103
e 4 118
e 5 6
e 5 7
e 5 8
e 5 9
e 5 10
e 5 11
e 5 12
e 5 13
e 5 14
e 5 16
e 5 17
e 5 18
e 5 20
e 5 22
e 5 24
e 5 26
e 5 29
e 5 30
e 5 32
e 5 40
e 5 43
e 5 47
e 5 53
e 5 56
e 5 60
e 5 65
e 5 67
e 5 72
e 5 73
e 5 81
e 5 102
e 5 112
e 5 117
e 6 9
e 6 10
e 6 11
e 6 13
e 6 18
e 6 19
e 6 23
e 6 24
e 6 25
e 6 27
e 6 32
e 6 33
e 6 46
e 6 57
e 6 77
e 6 82
e 6 94
e 6 104
e 6 107
e 7 8
e 7 9
e 7 11
e 7 12
e 7 14
e 7 16
e 7 21
e 7 23
e 7 33
e 7 39
e 7 43
e 7 51
e 7 52
e 7 58
e 7 60
e 7 63
e 7 75
e 7 82
e 7 101
e 7 104
e 8 9
e 8 10
e 8 13
e 8 15
e 8 16
e 8 17
e 8 21
e 8 23
e 8 25
e 8 34
e 8 36
e 8 37
e 8 44
e 8 46
e 8 49
e 8 53
e 8 58
e 8 62
e 8 65
e 8 74
e 8 78
e 8 112
e 8 116
e 9 11
e 9 12
e 9 14
e 9 18
e 9 23
e 9 31
e 9 33
e 9 35
e 9 48
e 9 50
e 9 69
e 9 91
e 9 100
e 9 109
e 9 110
e 9 112
e 10 18
e 10 20
e 10 22
e 10 30
e 10 35
e 10 37
e 10 38
e 10 41
e 10 44
e 10 59
e 10 82
e 10 83
e 10 84
e 10 109
e 11 17
e 11 19
e 11 20
e 11 35
e 11 42
e 11 44
e 11 50
e 11 61
e 11 72
e 11 92
e 11 100
e 11 114
e 12 15
e 12 19
e 12 22
e 12 30
e 12 34
e 12 37
e 12 67
e 12 90
e 12 95
e 12 111
e 13 15
e 13 45
e 13 46
e 13 64
e 13 86
e 14 20
e 14 56
e 14 105
e 14 106
e 15 24
e 15 26
e 15 32
e 15 42
e 15 47
e 15 66
e 15 80
e 15 85
e 15 87
e 15 90
e 15 103
e 15 118
e 16 27
e 16 29
e 16 36
e 16 40
e 16 55
e 16 78
e 16 88
e 16 90
e 16 99
e 16 100
e 16 101
e 17 26
e 17 53
e 17 71
e 17 107
e 18 21
e 18 27
e 18 28
e 18 29
e 18 35
e 18 40
e 18 48
e 18 50
e 18 79
e 18 83
e 18 104
e 18 119
e 19 22
e 19 28
e 19 43
e 19 64
e 19 67
e 20 24
e 20 41
e 20 54
e 20 79
e 20 87
e 20 106
e 20 110
e 21 34
e 21 38
e 21 39
e 21 44
e 21 75
e 21 78
e 21 85
e 21 101
e 21 114
e 22 25
e 22 31
e 22 47
e 22 55
e 22 66
e 22 68
e 22 74
e 22 96
e 23 25
e 23 39
e 23 51
e 23 64
e 23 68
e 23 77
e 23 80
e 23 84
e 23 113
e 23 118
e 24 27
e 24 28
e 24 29
e 24 32
e 24 37
e 24 41
e 24 45
e 24 52
e 24 54
e 24 56
e 24 61
e 24 62
e 24 74
e 24 75
e 24 76
e 24 90
e 24 96
e 24 100
e 24 109
e 25 33
e 25 39
e 25 62
e 25 76
e 25 80
e 25 110
e 26 41
e 26 47
e 26 71
e 26 85
e 26 92
e 26 97
e 26 98
e 26 102
e 26 104
e 26 111
e 27 38
e 27 62
e 27 63
e 27 69
e 28 31
e 28 36
e 28 43
e 28 52
e 28 73
e 28 86
e 28 107
e 29 93
e 29 102
e 30 59
e 31 84
e 31 115
e 32 59
e 32 63
e 32 88
e 33 36
e 33 50
e 33 66
e 34 102
e 34 118
e 35 38
e 35 57
e 35 60
e 35 73
e 35 77
e 35 120
e 36 42
e 36 98
e 37 56
e 37 64
e 37 66
e 37 75
e 37 97
e 37 98
e 38 68
e 38 69
e 38 76
e 38 120
e 39 40
e 39 89
e 39 105
e 41 53
e 41 63
e 41 71
e 42 54
e 42 55
e 42 61
e 42 79
e 42 88
e 42 98
e 43 45
e 43 108
e 44 48
e 44 58
e 45 49
e 45 96
e 45 108
e 46 54
e 46 70
e 46 81
e 46 95
e 47 49
e 47 72
e 47 82
e 47 89
e 47 92
e 47 103
e 48 76
e 48 97
e 48 101
e 48 115
e 51 58
e 52 70
e 52 72
e 52 91
e 54 94
e 54 99
e 55 68
e 55 69
e 55 81
e 55 106
e 56 78
e 57 97
e 58 73
e 58 74
e 58 83
e 59 70
e 59 71
e 59 111
e 59 114
e 59 120
e 61 65
e 61 105
e 61 111
e 61 119
e 62 77
e 62 93
e 62 115
e 63 91
e 64 81
e 64 86
e 64 89
e 64 94
e 66 83
e 69 87
e 69 106
e 70 116
e 71 94
e 71 107
e 76 86
e 76 87
e 77 103
e 78 119
e 79 80
e 79 84
e 79 114
e 83 85
e 83 116
e 85 93
e 86 109
e 87 91
e 87 99
e 87 108
e 88 89
e 88 116
e 91 93
e 91 95
e 97 99
e 100 113
e 100 117
e 101 112
e 103 105
e 110 113
e 111 113
e 113 119
e 118 120
